(set-logic QF_S)
(declare-fun V76 () String )
(declare-fun V66 () String )
(declare-fun V8 () String )
(declare-fun V68 () String )
(declare-fun V56 () String )
(declare-fun V31 () String )
(declare-fun V19 () String )
(declare-fun V35 () String )
(declare-fun V11 () String )
(declare-fun V48 () String )
(declare-fun V72 () String )
(declare-fun V18 () String )
(declare-fun V5 () String )
(declare-fun V88 () String )
(declare-fun V25 () String )
(declare-fun V13 () String )
(declare-fun V55 () String )
(declare-fun V64 () String )
(declare-fun V74 () String )
(declare-fun V52 () String )
(declare-fun V46 () String )
(declare-fun V45 () String )
(declare-fun V7 () String )
(declare-fun V42 () String )
(declare-fun V61 () String )
(declare-fun V0 () String )
(declare-fun V80 () String )
(declare-fun V1 () String )
(declare-fun V49 () String )
(declare-fun V89 () String )
(declare-fun V43 () String )
(declare-fun V16 () String )
(declare-fun V9 () String )
(declare-fun V12 () String )
(declare-fun V75 () String )
(declare-fun V29 () String )
(declare-fun V4 () String )
(declare-fun V15 () String )
(declare-fun V53 () String )
(declare-fun V23 () String )
(declare-fun V57 () String )
(declare-fun V36 () String )
(declare-fun V63 () String )
(declare-fun V30 () String )
(declare-fun V38 () String )
(declare-fun V39 () String )
(declare-fun V6 () String )
(declare-fun V40 () String )
(declare-fun V33 () String )
(declare-fun V47 () String )
(declare-fun V67 () String )
(declare-fun V10 () String )
(declare-fun V71 () String )
(declare-fun V65 () String )
(declare-fun V14 () String )
(declare-fun V50 () String )
(declare-fun V17 () String )
(declare-fun V37 () String )
(declare-fun V54 () String )
(declare-fun V28 () String )
(declare-fun V44 () String )
(declare-fun V69 () String )
(declare-fun V26 () String )
(declare-fun V20 () String )
(declare-fun V27 () String )
(declare-fun V81 () String )
(declare-fun V82 () String )
(declare-fun V24 () String )
(declare-fun V21 () String )
(declare-fun V79 () String )
(declare-fun V62 () String )
(declare-fun V83 () String )
(declare-fun V32 () String )
(declare-fun V58 () String )
(declare-fun V73 () String )
(declare-fun V59 () String )
(declare-fun V60 () String )
(declare-fun V77 () String )
(declare-fun V22 () String )
(declare-fun V41 () String )
(declare-fun V2 () String )
(declare-fun V34 () String )
(declare-fun V70 () String )
(declare-fun V3 () String )
(declare-fun V78 () String )
(declare-fun V51 () String )
(assert (= "" "S" ) )
(assert (= "" V57 ) )
(assert (= "" V40 ) )
(assert (= "" (str.++ (str.++ V69 V70 ) V71 ) ) )
(assert (= "\x09" V1 ) )
(assert (= "=" V0 ) )
(assert (= "C" V6 ) )
(assert (= "G" V15 ) )
(assert (= "S" V20 ) )
(assert (= "V" V14 ) )
(assert (= V64 V8 ) )
(assert (= V64 (str.++ "c" V8 ) ) )
(assert (= V64 (str.++ (str.++ V88 "c" ) V89 ) ) )
(assert (= V13 (str.++ (str.++ V45 "C" ) V46 ) ) )
(assert (= V13 (str.++ (str.++ V10 V11 ) V12 ) ) )
(assert (= V13 (str.++ (str.++ V26 V27 ) V28 ) ) )
(assert (= V65 (str.++ (str.++ V72 "c" ) V73 ) ) )
(assert (= V11 (str.++ (str.++ V72 "C" ) V73 ) ) )
(assert (= V68 V63 ) )
(assert (= V76 (str.++ "v" V62 ) ) )
(assert (= V76 (str.++ (str.++ V74 "v" ) V75 ) ) )
(assert (= V62 (str.++ (str.++ V74 "V" ) V75 ) ) )
(assert (= V34 V71 ) )
(assert (= V70 (str.++ (str.++ V79 "S" ) V80 ) ) )
(assert (= V81 (str.++ (str.++ V79 "s" ) V80 ) ) )
(assert (= V35 (str.++ (str.++ V77 "g" ) V78 ) ) )
(assert (= V22 (str.++ (str.++ V59 V1 ) V60 ) ) )
(assert (= V22 (str.++ (str.++ V36 V37 ) V38 ) ) )
(assert (= V3 (str.++ (str.++ V56 V57 ) V58 ) ) )
(assert (= V3 (str.++ (str.++ V24 V13 ) V25 ) ) )
(assert (= V3 (str.++ (str.++ V39 V40 ) V41 ) ) )
(assert (= V3 (str.++ (str.++ V47 "C" ) V48 ) ) )
(assert (= V3 (str.++ (str.++ V7 V8 ) V9 ) ) )
(assert (= V17 (str.++ (str.++ V77 "G" ) V78 ) ) )
(assert (= V5 (str.++ (str.++ V49 "=" ) V50 ) ) )
(assert (= V5 (str.++ (str.++ V21 V22 ) V23 ) ) )
(assert (= V5 (str.++ (str.++ V2 V3 ) V4 ) ) )
(assert (= V19 (str.++ (str.++ V53 V54 ) V55 ) ) )
(assert (= V19 (str.++ (str.++ V42 V43 ) V44 ) ) )
(assert (= V19 (str.++ (str.++ V51 "G" ) V52 ) ) )
(assert (= V19 (str.++ (str.++ V29 V30 ) V31 ) ) )
(assert (= V19 (str.++ (str.++ V16 V17 ) V18 ) ) )
(assert (= (str.++ V35 V30 ) (str.++ (str.++ V32 V33 ) V34 ) ) )
(assert (= (str.++ V35 V30 ) (str.++ (str.++ V69 V70 ) V71 ) ) )
(assert (= (str.++ (str.++ V64 V65 ) V27 ) (str.++ (str.++ V82 "V" ) V83 ) ) )
(assert (= (str.++ (str.++ V64 V65 ) V27 ) (str.++ (str.++ V61 V62 ) V63 ) ) )
(assert (= (str.++ (str.++ V64 V65 ) V27 ) (str.++ (str.++ V66 V67 ) V68 ) ) )
( check-sat )
